db/data/156761965121412213832855630203181302357.z3.out
sat
-------------------
1315.298148565
